3 24 1 10
10 17 9 10 18 6 11 6 11 13 13 9 2 17 17 9 3 17 11 11 19 18 11 16 
2.74 2.21 5.81 1.22 7.21 6.71 4.93 5.91 0.45 0.83 7.03 3.42 0.14 5.42 5.43 3.51 7.2 2.53 1.26 6.89 4.23 5.84 5.64 1.22 
4 4 4 4 4 4 4 4 4 4 4 4 4 4 4 4 4 4 4 4 4 4 4 4 
1.4 1.46 1.96 5.68 0.53 5.36 1.27 3.5 0.95 3.98 2.33 7.52 6 7.83 5.55 5.28 6.1 3.23 5.28 5.87 6.35 3.92 1.19 6.01 
1 1 1 1 1 1 1 1 1 1 1 1 1 1 1 1 1 1 1 1 1 1 1 1 
1 1 1 1 1 1 1 1 1 1 1 1 1 1 1 1 1 1 1 1 1 1 1 1 
1 1 1 1 1 1 1 1 1 1 1 1 1 1 1 1 1 1 1 1 1 1 1 1 
0.01 0.01 0.01 0.01 0.01 0.01 0.01 0.01 0.01 0.01 0.01 0.01 0.01 0.01 0.01 0.01 0.01 0.01 0.01 0.01 0.01 0.01 0.01 0.01 
0.02 0.02 0.02 0.02 0.02 0.02 0.02 0.02 0.02 0.02 0.02 0.02 0.02 0.02 0.02 0.02 0.02 0.02 0.02 0.02 0.02 0.02 0.02 0.02 
1 1 1 1 1 1 1 1 1 1 1 1 1 1 1 1 1 1 1 1 1 1 1 1 
